68
[[-1, 27980, 0, 0, 42096, 0, 0, 45509, 40800, 27244, 18963, 31472, 0, 0, 35443, 0, 26692, 0, 0, 37733, 0, 39075, 0, 0, 0, 0, 35730, 40506, 23472, 7339, 0, 20285, 0, 0, 0, 22015, 0, 0, 0, 0, 21353, 0, 0, 0, 0, 0, 0, 0, 0, 0, 0, 0, 0, 26607, 0, 6170, 42805, 0, 32984, 0, 0, 31554, 30122, 0, 29833, 9905, 0, 0],[27980, -1, 0, 0, 0, 0, 0, 0, 0, 12245, 0, 0, 0, 0, 12008, 0, 0, 0, 22682, 0, 0, 0, 43001, 0, 24139, 37588, 0, 0, 0, 43425, 0, 3238, 0, 0, 0, 0, 45270, 0, 0, 0, 36897, 0, 0, 0, 42532, 0, 0, 0, 0, 10103, 0, 0, 0, 0, 17789, 0, 0, 0, 0, 0, 0, 0, 0, 0, 0, 0, 0, 20291],[0, 0, -1, 0, 0, 0, 0, 31506, 0, 29493, 0, 0, 0, 0, 42802, 0, 14722, 39620, 0, 0, 0, 0, 9165, 0, 0, 0, 0, 0, 0, 0, 45210, 0, 41101, 42308, 0, 45399, 0, 0, 0, 40894, 0, 0, 39910, 0, 0, 3197, 0, 0, 0, 0, 0, 36432, 0, 0, 41102, 0, 0, 24045, 0, 0, 0, 0, 20090, 0, 30244, 0, 0, 0],[0, 0, 0, -1, 0, 0, 0, 30567, 0, 43255, 0, 0, 0, 0, 0, 0, 0, 44962, 0, 0, 0, 0, 0, 0, 0, 0, 0, 7349, 0, 0, 5191, 44340, 37893, 24330, 0, 41963, 0, 44439, 41734, 0, 26380, 8900, 41259, 0, 40823, 0, 0, 0, 39683, 0, 0, 0, 0, 0, 0, 26080, 0, 0, 38667, 41324, 20029, 0, 0, 0, 0, 25301, 40360, 29192],[42096, 0, 0, 0, -1, 0, 0, 0, 0, 0, 0, 0, 0, 0, 0, 0, 0, 0, 0, 0, 0, 0, 38082, 0, 0, 13345, 35389, 33772, 0, 44392, 0, 0, 0, 0, 0, 0, 0, 42809, 42526, 30694, 0, 0, 0, 0, 0, 0, 34253, 0, 11349, 0, 0, 0, 0, 0, 0, 0, 39543, 40752, 0, 0, 29473, 25152, 12156, 0, 0, 0, 0, 0],[0, 0, 0, 0, 0, -1, 0, 0, 30043, 33612, 0, 0, 0, 24962, 0, 17786, 41600, 0, 0, 0, 36455, 0, 0, 0, 0, 0, 3447, 0, 43006, 44179, 28829, 0, 0, 0, 0, 23514, 24484, 0, 43287, 0, 0, 0, 0, 28354, 44102, 0, 26276, 18416, 0, 29058, 0, 0, 43558, 19513, 34880, 0, 0, 0, 0, 0, 0, 0, 0, 0, 0, 0, 0, 44951],[0, 0, 0, 0, 0, 0, -1, 0, 23837, 0, 0, 0, 0, 0, 0, 11557, 0, 33095, 0, 0, 21689, 0, 0, 0, 0, 0, 0, 0, 0, 0, 0, 33556, 41860, 0, 41714, 0, 0, 0, 0, 0, 45669, 0, 27437, 0, 0, 0, 0, 33696, 39012, 0, 0, 0, 0, 0, 37749, 0, 0, 0, 25336, 0, 0, 0, 37296, 0, 21046, 0, 28692, 0],[45509, 0, 31506, 30567, 0, 0, 0, -1, 0, 0, 45878, 0, 0, 0, 0, 0, 0, 38443, 0, 0, 0, 0, 0, 0, 0, 0, 0, 0, 0, 28952, 0, 23936, 0, 0, 0, 0, 19262, 0, 0, 0, 0, 22860, 0, 0, 0, 0, 44462, 11295, 24664, 34877, 0, 31230, 0, 0, 0, 0, 0, 0, 0, 30730, 0, 37660, 38831, 0, 0, 34366, 0, 32238],[40800, 0, 0, 0, 0, 30043, 23837, 0, -1, 0, 0, 0, 10589, 0, 0, 0, 0, 0, 0, 0, 29607, 0, 0, 0, 0, 38931, 21664, 0, 0, 27086, 0, 46029, 0, 0, 10912, 0, 0, 0, 44323, 41578, 0, 0, 0, 0, 14248, 32865, 38348, 43264, 0, 0, 0, 0, 0, 0, 0, 0, 0, 0, 0, 0, 0, 19831, 0, 0, 0, 0, 0, 0],[27244, 12245, 29493, 43255, 0, 33612, 0, 0, 0, -1, 0, 0, 0, 0, 16757, 0, 0, 0, 0, 0, 45435, 0, 25169, 0, 0, 38517, 0, 0, 0, 37817, 0, 0, 33843, 0, 0, 0, 0, 0, 0, 0, 0, 42552, 0, 0, 0, 24615, 0, 0, 0, 23330, 31898, 0, 0, 0, 22098, 0, 0, 0, 0, 0, 0, 0, 0, 0, 0, 35560, 0, 0],[18963, 0, 0, 0, 0, 0, 0, 45878, 0, 0, -1, 36379, 0, 41646, 0, 0, 33827, 0, 0, 0, 0, 0, 0, 31310, 0, 43387, 40459, 0, 0, 16530, 0, 0, 27384, 40959, 0, 0, 0, 0, 0, 0, 0, 0, 0, 0, 0, 0, 32275, 0, 29186, 0, 0, 0, 0, 0, 0, 0, 7627, 0, 34881, 39504, 38220, 0, 0, 0, 0, 0, 0, 0],[31472, 0, 0, 0, 0, 0, 0, 0, 0, 0, 36379, -1, 0, 0, 0, 0, 0, 20544, 22693, 26003, 0, 0, 0, 0, 0, 0, 0, 0, 0, 0, 0, 0, 0, 0, 0, 0, 10794, 0, 0, 45575, 0, 0, 45730, 13667, 0, 45920, 0, 0, 0, 0, 0, 0, 0, 0, 35029, 0, 25316, 0, 0, 41398, 0, 0, 0, 22404, 0, 0, 0, 0],[0, 0, 0, 0, 0, 0, 0, 0, 10589, 0, 0, 0, -1, 0, 0, 0, 0, 0, 17207, 0, 0, 0, 0, 0, 0, 18676, 0, 0, 0, 0, 0, 0, 0, 0, 0, 0, 0, 0, 4400, 0, 0, 0, 0, 0, 0, 0, 0, 36184, 0, 0, 0, 14974, 0, 0, 0, 45091, 0, 25335, 0, 0, 26459, 8923, 0, 0, 0, 0, 0, 0],[0, 0, 0, 0, 0, 24962, 0, 0, 0, 0, 41646, 0, 0, -1, 34691, 37692, 21644, 0, 0, 0, 8224, 27700, 0, 0, 10087, 0, 24452, 0, 0, 0, 0, 0, 0, 0, 0, 0, 33549, 37652, 0, 40877, 39622, 0, 0, 0, 0, 0, 0, 21526, 0, 0, 13634, 34194, 44162, 44302, 34120, 0, 0, 0, 0, 29790, 0, 0, 0, 0, 0, 0, 0, 0],[35443, 12008, 42802, 0, 0, 0, 0, 0, 0, 16757, 0, 0, 0, 34691, -1, 0, 0, 0, 0, 25871, 0, 0, 39162, 0, 0, 43935, 0, 0, 0, 0, 0, 0, 0, 0, 33459, 0, 0, 0, 46219, 29181, 0, 0, 0, 0, 0, 0, 0, 43572, 13014, 0, 0, 43170, 12931, 0, 0, 0, 32269, 0, 0, 29116, 0, 38594, 37327, 40432, 0, 0, 0, 0],[0, 0, 0, 0, 0, 17786, 11557, 0, 0, 0, 0, 0, 0, 37692, 0, -1, 30400, 0, 17015, 0, 0, 0, 0, 43438, 0, 39459, 0, 0, 0, 0, 0, 0, 0, 0, 0, 32605, 0, 0, 0, 0, 39460, 46208, 3457, 0, 21519, 0, 0, 38045, 0, 41359, 0, 30010, 0, 0, 37434, 0, 0, 44440, 32162, 39214, 33595, 30712, 0, 0, 0, 0, 0, 0],[26692, 0, 14722, 0, 0, 41600, 0, 0, 0, 0, 33827, 0, 0, 21644, 0, 30400, -1, 0, 0, 0, 40994, 20979, 35412, 0, 0, 0, 0, 40602, 0, 0, 0, 0, 0, 0, 0, 0, 38779, 32170, 0, 0, 38953, 24208, 0, 0, 0, 0, 21292, 38965, 31300, 0, 0, 0, 0, 0, 0, 0, 0, 26034, 36021, 0, 15543, 0, 0, 0, 0, 0, 33622, 0],[0, 0, 39620, 44962, 0, 0, 33095, 38443, 0, 0, 0, 20544, 0, 0, 0, 0, 0, -1, 0, 0, 0, 22239, 0, 0, 0, 26462, 0, 43532, 0, 0, 0, 0, 38331, 0, 0, 0, 27622, 0, 0, 36368, 0, 0, 0, 0, 0, 0, 0, 0, 32480, 0, 0, 0, 0, 0, 0, 21138, 22217, 0, 0, 21366, 0, 0, 0, 0, 2856, 0, 0, 0],[0, 22682, 0, 0, 0, 0, 0, 0, 0, 0, 0, 22693, 17207, 0, 0, 17015, 0, 0, -1, 25622, 0, 0, 26731, 35635, 25171, 0, 0, 36563, 0, 0, 31536, 0, 31187, 0, 20164, 0, 0, 0, 0, 0, 0, 13485, 0, 0, 0, 0, 0, 0, 0, 0, 39000, 43829, 0, 0, 0, 0, 0, 39306, 0, 0, 0, 0, 0, 23670, 29962, 0, 29302, 0],[37733, 0, 0, 0, 0, 0, 0, 0, 0, 0, 0, 26003, 0, 0, 25871, 0, 0, 0, 25622, -1, 0, 32921, 0, 40469, 0, 36823, 0, 0, 0, 0, 0, 0, 0, 0, 0, 0, 5628, 14085, 0, 0, 0, 26690, 0, 29761, 0, 20084, 0, 0, 0, 0, 0, 0, 0, 0, 0, 0, 0, 0, 0, 0, 0, 38063, 0, 0, 0, 0, 0, 0],[0, 0, 0, 0, 0, 36455, 21689, 0, 29607, 45435, 0, 0, 0, 8224, 0, 0, 40994, 0, 0, 0, -1, 0, 17167, 0, 0, 36940, 40437, 0, 0, 0, 12154, 0, 0, 26247, 0, 30800, 0, 0, 0, 45409, 22576, 40881, 0, 34224, 5542, 0, 0, 0, 0, 0, 0, 0, 0, 0, 0, 0, 11277, 0, 16414, 24173, 43701, 0, 0, 0, 26762, 0, 0, 0],[39075, 0, 0, 0, 0, 0, 0, 0, 0, 0, 0, 0, 0, 27700, 0, 0, 20979, 22239, 0, 32921, 0, -1, 0, 28680, 0, 0, 0, 0, 28108, 9885, 0, 0, 0, 0, 0, 0, 0, 0, 36179, 0, 37326, 46021, 0, 41610, 14837, 0, 28735, 0, 0, 0, 0, 0, 0, 44948, 33634, 0, 0, 42511, 0, 0, 41863, 0, 0, 27144, 22983, 0, 0, 0],[0, 43001, 9165, 0, 38082, 0, 0, 0, 0, 25169, 0, 0, 0, 0, 39162, 0, 35412, 0, 26731, 0, 17167, 0, -1, 19358, 0, 0, 0, 26669, 0, 0, 0, 43693, 21530, 38101, 25270, 0, 14780, 0, 42496, 35554, 0, 0, 0, 0, 0, 0, 0, 0, 0, 3195, 0, 33946, 10042, 0, 0, 29607, 0, 34460, 0, 0, 12635, 0, 0, 0, 0, 0, 0, 0],[0, 0, 0, 0, 0, 0, 0, 0, 0, 0, 31310, 0, 0, 0, 0, 43438, 0, 0, 35635, 40469, 0, 28680, 19358, -1, 0, 0, 0, 0, 0, 0, 0, 0, 0, 0, 0, 0, 39191, 0, 31351, 0, 32487, 0, 9921, 0, 0, 0, 0, 0, 0, 31318, 0, 0, 0, 0, 27031, 0, 40931, 0, 41784, 0, 0, 0, 0, 0, 0, 0, 45173, 0],[0, 24139, 0, 0, 0, 0, 0, 0, 0, 0, 0, 0, 0, 10087, 0, 0, 0, 0, 25171, 0, 0, 0, 0, 0, -1, 0, 0, 22453, 33681, 44312, 0, 0, 0, 0, 33341, 0, 0, 0, 33480, 0, 0, 0, 0, 0, 0, 0, 0, 0, 0, 40946, 0, 9493, 0, 0, 0, 0, 0, 26534, 0, 28729, 0, 0, 5166, 0, 0, 44237, 0, 36573],[0, 37588, 0, 0, 13345, 0, 0, 0, 38931, 38517, 43387, 0, 18676, 0, 43935, 39459, 0, 26462, 0, 36823, 36940, 0, 0, 0, 0, -1, 0, 36157, 0, 0, 0, 30406, 0, 0, 31400, 0, 0, 0, 0, 0, 0, 22409, 0, 32878, 0, 0, 33176, 0, 20986, 37176, 17756, 0, 0, 0, 0, 0, 0, 0, 0, 33742, 0, 0, 18760, 0, 34156, 0, 0, 0],[35730, 0, 0, 0, 35389, 3447, 0, 0, 21664, 0, 40459, 0, 0, 24452, 0, 0, 0, 0, 0, 0, 40437, 0, 0, 0, 0, 0, -1, 30918, 0, 34593, 0, 19118, 0, 0, 0, 0, 0, 43570, 0, 0, 0, 0, 0, 0, 0, 0, 0, 0, 0, 0, 33500, 0, 0, 0, 0, 0, 41481, 33174, 0, 11010, 42547, 0, 0, 0, 33107, 14691, 0, 27806],[40506, 0, 0, 7349, 33772, 0, 0, 0, 0, 0, 0, 0, 0, 0, 0, 0, 40602, 43532, 36563, 0, 0, 0, 26669, 0, 22453, 36157, 30918, -1, 0, 0, 0, 33317, 0, 0, 0, 0, 0, 0, 0, 0, 0, 0, 0, 0, 45656, 0, 0, 25644, 12170, 0, 0, 0, 0, 23087, 0, 0, 0, 0, 0, 0, 0, 10114, 41506, 0, 0, 0, 0, 30421],[23472, 0, 0, 0, 0, 43006, 0, 0, 0, 0, 0, 0, 0, 0, 0, 0, 0, 0, 0, 0, 0, 28108, 0, 0, 33681, 0, 0, 0, -1, 0, 0, 0, 0, 0, 0, 0, 0, 0, 0, 0, 21704, 0, 0, 0, 0, 37353, 12066, 25441, 0, 9615, 0, 0, 0, 0, 0, 0, 35379, 0, 0, 0, 0, 0, 9782, 0, 0, 0, 42946, 0],[7339, 43425, 0, 0, 44392, 44179, 0, 28952, 27086, 37817, 16530, 0, 0, 0, 0, 0, 0, 0, 0, 0, 0, 9885, 0, 0, 44312, 0, 34593, 0, 0, -1, 0, 39251, 36997, 0, 17289, 0, 0, 0, 0, 0, 0, 0, 0, 0, 39885, 0, 0, 0, 38035, 0, 0, 36040, 11492, 0, 0, 20688, 0, 0, 40402, 0, 10980, 0, 0, 0, 45632, 0, 0, 0],[0, 0, 45210, 5191, 0, 28829, 0, 0, 0, 0, 0, 0, 0, 0, 0, 0, 0, 0, 31536, 0, 12154, 0, 0, 0, 0, 0, 0, 0, 0, 0, -1, 0, 0, 0, 0, 0, 24174, 0, 0, 0, 33476, 0, 0, 0, 0, 0, 0, 0, 0, 0, 0, 0, 36090, 0, 29600, 0, 0, 0, 11819, 0, 0, 0, 0, 0, 0, 0, 40608, 0],[20285, 3238, 0, 44340, 0, 0, 33556, 23936, 46029, 0, 0, 0, 0, 0, 0, 0, 0, 0, 0, 0, 0, 0, 43693, 0, 0, 30406, 19118, 33317, 0, 39251, 0, -1, 43617, 0, 43357, 0, 0, 38788, 0, 0, 0, 0, 38896, 0, 0, 0, 0, 0, 0, 0, 26995, 0, 0, 41464, 0, 0, 45928, 31053, 0, 31500, 9228, 21331, 0, 0, 27403, 0, 41324, 0],[0, 0, 41101, 37893, 0, 0, 41860, 0, 0, 33843, 27384, 0, 0, 0, 0, 0, 0, 38331, 31187, 0, 0, 0, 21530, 0, 0, 0, 0, 0, 0, 36997, 0, 43617, -1, 0, 0, 0, 0, 0, 0, 0, 0, 0, 0, 34775, 23512, 0, 0, 0, 0, 0, 0, 0, 0, 0, 0, 36161, 19600, 40608, 0, 0, 40934, 0, 0, 0, 0, 0, 0, 19318],[0, 0, 42308, 24330, 0, 0, 0, 0, 0, 0, 40959, 0, 0, 0, 0, 0, 0, 0, 0, 0, 26247, 0, 38101, 0, 0, 0, 0, 0, 0, 0, 0, 0, 0, -1, 0, 0, 39227, 0, 0, 23343, 18410, 0, 0, 0, 0, 26639, 22269, 0, 0, 24383, 3696, 45612, 0, 0, 0, 0, 0, 0, 0, 0, 9344, 29569, 33526, 39059, 0, 0, 21254, 0],[0, 0, 0, 0, 0, 0, 41714, 0, 10912, 0, 0, 0, 0, 0, 33459, 0, 0, 0, 20164, 0, 0, 0, 25270, 0, 33341, 31400, 0, 0, 0, 17289, 0, 43357, 0, 0, -1, 0, 0, 0, 9774, 0, 0, 31789, 0, 0, 0, 0, 0, 41352, 44366, 0, 44194, 0, 0, 0, 0, 0, 0, 0, 0, 0, 0, 34979, 0, 0, 0, 0, 0, 0],[22015, 0, 45399, 41963, 0, 23514, 0, 0, 0, 0, 0, 0, 0, 0, 0, 32605, 0, 0, 0, 0, 30800, 0, 0, 0, 0, 0, 0, 0, 0, 0, 0, 0, 0, 0, 0, -1, 24368, 0, 0, 0, 0, 0, 0, 28852, 0, 0, 0, 0, 0, 33027, 0, 0, 0, 0, 0, 0, 41177, 0, 41862, 0, 0, 39983, 37431, 0, 0, 12359, 35793, 0],[0, 45270, 0, 0, 0, 24484, 0, 19262, 0, 0, 0, 10794, 0, 33549, 0, 0, 38779, 27622, 0, 5628, 0, 0, 14780, 39191, 0, 0, 0, 0, 0, 0, 24174, 0, 0, 39227, 0, 24368, -1, 0, 0, 0, 0, 0, 0, 0, 0, 0, 26319, 0, 0, 0, 0, 0, 0, 0, 0, 21111, 0, 11926, 0, 0, 37387, 0, 0, 0, 0, 39594, 35395, 15932],[0, 0, 0, 44439, 42809, 0, 0, 0, 0, 0, 0, 0, 0, 37652, 0, 0, 32170, 0, 0, 14085, 0, 0, 0, 0, 0, 0, 43570, 0, 0, 0, 0, 38788, 0, 0, 0, 0, 0, -1, 0, 0, 0, 0, 0, 0, 0, 0, 23845, 0, 0, 0, 0, 17638, 0, 0, 0, 32996, 22594, 0, 0, 0, 0, 0, 0, 36878, 0, 0, 42526, 40267],[0, 0, 0, 41734, 42526, 43287, 0, 0, 44323, 0, 0, 0, 4400, 0, 46219, 0, 0, 0, 0, 0, 0, 36179, 42496, 31351, 33480, 0, 0, 0, 0, 0, 0, 0, 0, 0, 9774, 0, 0, 0, -1, 0, 32323, 0, 0, 6724, 0, 0, 27823, 0, 0, 19490, 0, 0, 0, 0, 0, 0, 0, 0, 0, 0, 0, 35890, 36270, 0, 0, 0, 0, 0],[0, 0, 40894, 0, 30694, 0, 0, 0, 41578, 0, 0, 45575, 0, 40877, 29181, 0, 0, 36368, 0, 0, 45409, 0, 35554, 0, 0, 0, 0, 0, 0, 0, 0, 0, 0, 23343, 0, 0, 0, 0, 0, -1, 0, 0, 40630, 0, 0, 0, 0, 0, 35121, 0, 0, 0, 28021, 0, 0, 0, 0, 0, 0, 0, 0, 0, 19899, 0, 23199, 30830, 44260, 32009],[21353, 36897, 0, 26380, 0, 0, 45669, 0, 0, 0, 0, 0, 0, 39622, 0, 39460, 38953, 0, 0, 0, 22576, 37326, 0, 32487, 0, 0, 0, 0, 21704, 0, 33476, 0, 0, 18410, 0, 0, 0, 0, 32323, 0, -1, 0, 25785, 20229, 18479, 0, 0, 0, 0, 0, 0, 0, 3636, 0, 0, 0, 0, 0, 0, 0, 0, 0, 0, 0, 0, 0, 0, 0],[0, 0, 0, 8900, 0, 0, 0, 22860, 0, 42552, 0, 0, 0, 0, 0, 46208, 24208, 0, 13485, 26690, 40881, 46021, 0, 0, 0, 22409, 0, 0, 0, 0, 0, 0, 0, 0, 31789, 0, 0, 0, 0, 0, 0, -1, 0, 0, 21767, 41919, 0, 39787, 33675, 24005, 27815, 45750, 0, 19038, 0, 0, 0, 0, 31090, 34172, 0, 0, 0, 0, 0, 18243, 0, 0],[0, 0, 39910, 41259, 0, 0, 27437, 0, 0, 0, 0, 45730, 0, 0, 0, 3457, 0, 0, 0, 0, 0, 0, 0, 9921, 0, 0, 0, 0, 0, 0, 0, 38896, 0, 0, 0, 0, 0, 0, 0, 40630, 25785, 0, -1, 0, 0, 0, 28526, 0, 0, 15445, 30785, 0, 0, 0, 0, 0, 0, 0, 0, 0, 0, 0, 10340, 0, 0, 0, 0, 0],[0, 0, 0, 0, 0, 28354, 0, 0, 0, 0, 0, 13667, 0, 0, 0, 0, 0, 0, 0, 29761, 34224, 41610, 0, 0, 0, 32878, 0, 0, 0, 0, 0, 0, 34775, 0, 0, 28852, 0, 0, 6724, 0, 20229, 0, 0, -1, 0, 0, 0, 0, 24688, 0, 0, 0, 8968, 0, 36771, 0, 0, 25379, 0, 0, 0, 0, 35394, 0, 0, 0, 45195, 0],[0, 42532, 0, 40823, 0, 44102, 0, 0, 14248, 0, 0, 0, 0, 0, 0, 21519, 0, 0, 0, 0, 5542, 14837, 0, 0, 0, 0, 0, 45656, 0, 39885, 0, 0, 23512, 0, 0, 0, 0, 0, 0, 0, 18479, 21767, 0, 0, -1, 0, 0, 0, 0, 0, 0, 0, 0, 31139, 22994, 0, 41375, 39857, 0, 0, 17791, 17182, 0, 0, 0, 0, 0, 0],[0, 0, 3197, 0, 0, 0, 0, 0, 32865, 24615, 0, 45920, 0, 0, 0, 0, 0, 0, 0, 20084, 0, 0, 0, 0, 0, 0, 0, 0, 37353, 0, 0, 0, 0, 26639, 0, 0, 0, 0, 0, 0, 0, 41919, 0, 0, 0, -1, 17005, 0, 0, 0, 15526, 30379, 33858, 0, 0, 30511, 22910, 0, 0, 0, 0, 0, 0, 0, 0, 0, 0, 0],[0, 0, 0, 0, 34253, 26276, 0, 44462, 38348, 0, 32275, 0, 0, 0, 0, 0, 21292, 0, 0, 0, 0, 28735, 0, 0, 0, 33176, 0, 0, 12066, 0, 0, 0, 0, 22269, 0, 0, 26319, 23845, 27823, 0, 0, 0, 28526, 0, 0, 17005, -1, 0, 0, 0, 0, 0, 34068, 0, 37479, 0, 0, 0, 0, 0, 23587, 0, 0, 0, 0, 0, 0, 0],[0, 0, 0, 0, 0, 18416, 33696, 11295, 43264, 0, 0, 0, 36184, 21526, 43572, 38045, 38965, 0, 0, 0, 0, 0, 0, 0, 0, 0, 0, 25644, 25441, 0, 0, 0, 0, 0, 41352, 0, 0, 0, 0, 0, 0, 39787, 0, 0, 0, 0, 0, -1, 0, 0, 0, 0, 0, 0, 0, 0, 0, 0, 0, 0, 0, 0, 0, 43353, 0, 0, 17752, 0],[0, 0, 0, 39683, 11349, 0, 39012, 24664, 0, 0, 29186, 0, 0, 0, 13014, 0, 31300, 32480, 0, 0, 0, 0, 0, 0, 0, 20986, 0, 12170, 0, 38035, 0, 0, 0, 0, 44366, 0, 0, 0, 0, 35121, 0, 33675, 0, 24688, 0, 0, 0, 0, -1, 0, 35939, 11206, 27524, 36344, 0, 0, 25807, 41358, 0, 0, 0, 37911, 0, 0, 0, 45999, 0, 0],[0, 10103, 0, 0, 0, 29058, 0, 34877, 0, 23330, 0, 0, 0, 0, 0, 41359, 0, 0, 0, 0, 0, 0, 3195, 31318, 40946, 37176, 0, 0, 9615, 0, 0, 0, 0, 24383, 0, 33027, 0, 0, 19490, 0, 0, 24005, 15445, 0, 0, 0, 0, 0, 0, -1, 0, 0, 0, 0, 20503, 0, 19762, 0, 0, 0, 0, 39186, 0, 0, 0, 17067, 0, 0],[0, 0, 0, 0, 0, 0, 0, 0, 0, 31898, 0, 0, 0, 13634, 0, 0, 0, 0, 39000, 0, 0, 0, 0, 0, 0, 17756, 33500, 0, 0, 0, 0, 26995, 0, 3696, 44194, 0, 0, 0, 0, 0, 0, 27815, 30785, 0, 0, 15526, 0, 0, 35939, 0, -1, 0, 0, 0, 0, 0, 0, 31049, 0, 0, 0, 0, 0, 0, 0, 0, 0, 18613],[0, 0, 36432, 0, 0, 0, 0, 31230, 0, 0, 0, 0, 14974, 34194, 43170, 30010, 0, 0, 43829, 0, 0, 0, 33946, 0, 9493, 0, 0, 0, 0, 36040, 0, 0, 0, 45612, 0, 0, 0, 17638, 0, 0, 0, 45750, 0, 0, 0, 30379, 0, 0, 11206, 0, 0, -1, 0, 0, 0, 0, 0, 0, 0, 0, 0, 0, 0, 20106, 42944, 0, 0, 0],[0, 0, 0, 0, 0, 43558, 0, 0, 0, 0, 0, 0, 0, 44162, 12931, 0, 0, 0, 0, 0, 0, 0, 10042, 0, 0, 0, 0, 0, 0, 11492, 36090, 0, 0, 0, 0, 0, 0, 0, 0, 28021, 3636, 0, 0, 8968, 0, 33858, 34068, 0, 27524, 0, 0, 0, -1, 40137, 0, 23666, 38024, 0, 43113, 0, 0, 0, 0, 45503, 0, 0, 31926, 0],[26607, 0, 0, 0, 0, 19513, 0, 0, 0, 0, 0, 0, 0, 44302, 0, 0, 0, 0, 0, 0, 0, 44948, 0, 0, 0, 0, 0, 23087, 0, 0, 0, 41464, 0, 0, 0, 0, 0, 0, 0, 0, 0, 19038, 0, 0, 31139, 0, 0, 0, 36344, 0, 0, 0, 40137, -1, 0, 0, 0, 0, 0, 0, 0, 0, 0, 10130, 0, 20238, 31811, 0],[0, 17789, 41102, 0, 0, 34880, 37749, 0, 0, 22098, 0, 35029, 0, 34120, 0, 37434, 0, 0, 0, 0, 0, 33634, 0, 27031, 0, 0, 0, 0, 0, 0, 29600, 0, 0, 0, 0, 0, 0, 0, 0, 0, 0, 0, 0, 36771, 22994, 0, 37479, 0, 0, 20503, 0, 0, 0, 0, -1, 24879, 0, 0, 36864, 0, 23031, 0, 0, 35278, 0, 0, 30478, 0],[6170, 0, 0, 26080, 0, 0, 0, 0, 0, 0, 0, 0, 45091, 0, 0, 0, 0, 21138, 0, 0, 0, 0, 29607, 0, 0, 0, 0, 0, 0, 20688, 0, 0, 36161, 0, 0, 0, 21111, 32996, 0, 0, 0, 0, 0, 0, 0, 30511, 0, 0, 0, 0, 0, 0, 23666, 0, 24879, -1, 0, 0, 0, 8475, 0, 0, 0, 0, 0, 0, 27073, 0],[42805, 0, 0, 0, 39543, 0, 0, 0, 0, 0, 7627, 25316, 0, 0, 32269, 0, 0, 22217, 0, 0, 11277, 0, 0, 40931, 0, 0, 41481, 0, 35379, 0, 0, 45928, 19600, 0, 0, 41177, 0, 22594, 0, 0, 0, 0, 0, 0, 41375, 22910, 0, 0, 25807, 19762, 0, 0, 38024, 0, 0, 0, -1, 0, 0, 13248, 43860, 0, 0, 0, 0, 0, 0, 40980],[0, 0, 24045, 0, 40752, 0, 0, 0, 0, 0, 0, 0, 25335, 0, 0, 44440, 26034, 0, 39306, 0, 0, 42511, 34460, 0, 26534, 0, 33174, 0, 0, 0, 0, 31053, 40608, 0, 0, 0, 11926, 0, 0, 0, 0, 0, 0, 25379, 39857, 0, 0, 0, 41358, 0, 31049, 0, 0, 0, 0, 0, 0, -1, 39012, 0, 0, 42908, 0, 0, 41534, 0, 0, 0],[32984, 0, 0, 38667, 0, 0, 25336, 0, 0, 0, 34881, 0, 0, 0, 0, 32162, 36021, 0, 0, 0, 16414, 0, 0, 41784, 0, 0, 0, 0, 0, 40402, 11819, 0, 0, 0, 0, 41862, 0, 0, 0, 0, 0, 31090, 0, 0, 0, 0, 0, 0, 0, 0, 0, 0, 43113, 0, 36864, 0, 0, 39012, -1, 0, 7947, 0, 0, 0, 28169, 0, 38306, 0],[0, 0, 0, 41324, 0, 0, 0, 30730, 0, 0, 39504, 41398, 0, 29790, 29116, 39214, 0, 21366, 0, 0, 24173, 0, 0, 0, 28729, 33742, 11010, 0, 0, 0, 0, 31500, 0, 0, 0, 0, 0, 0, 0, 0, 0, 34172, 0, 0, 0, 0, 0, 0, 0, 0, 0, 0, 0, 0, 0, 8475, 13248, 0, 0, -1, 0, 0, 0, 11245, 5470, 0, 0, 0],[0, 0, 0, 20029, 29473, 0, 0, 0, 0, 0, 38220, 0, 26459, 0, 0, 33595, 15543, 0, 0, 0, 43701, 41863, 12635, 0, 0, 0, 42547, 0, 0, 10980, 0, 9228, 40934, 9344, 0, 0, 37387, 0, 0, 0, 0, 0, 0, 0, 17791, 0, 23587, 0, 0, 0, 0, 0, 0, 0, 23031, 0, 43860, 0, 7947, 0, -1, 0, 45339, 38668, 0, 37383, 43950, 44246],[31554, 0, 0, 0, 25152, 0, 0, 37660, 19831, 0, 0, 0, 8923, 0, 38594, 30712, 0, 0, 0, 38063, 0, 0, 0, 0, 0, 0, 0, 10114, 0, 0, 0, 21331, 0, 29569, 34979, 39983, 0, 0, 35890, 0, 0, 0, 0, 0, 17182, 0, 0, 0, 37911, 39186, 0, 0, 0, 0, 0, 0, 0, 42908, 0, 0, 0, -1, 0, 0, 45475, 0, 0, 0],[30122, 0, 20090, 0, 12156, 0, 37296, 38831, 0, 0, 0, 0, 0, 0, 37327, 0, 0, 0, 0, 0, 0, 0, 0, 0, 5166, 18760, 0, 41506, 9782, 0, 0, 0, 0, 33526, 0, 37431, 0, 0, 36270, 19899, 0, 0, 10340, 35394, 0, 0, 0, 0, 0, 0, 0, 0, 0, 0, 0, 0, 0, 0, 0, 0, 45339, 0, -1, 0, 0, 12425, 0, 0],[0, 0, 0, 0, 0, 0, 0, 0, 0, 0, 0, 22404, 0, 0, 40432, 0, 0, 0, 23670, 0, 0, 27144, 0, 0, 0, 0, 0, 0, 0, 0, 0, 0, 0, 39059, 0, 0, 0, 36878, 0, 0, 0, 0, 0, 0, 0, 0, 0, 43353, 0, 0, 0, 20106, 45503, 10130, 35278, 0, 0, 0, 0, 11245, 38668, 0, 0, -1, 0, 39925, 23265, 41908],[29833, 0, 30244, 0, 0, 0, 21046, 0, 0, 0, 0, 0, 0, 0, 0, 0, 0, 2856, 29962, 0, 26762, 22983, 0, 0, 0, 34156, 33107, 0, 0, 45632, 0, 27403, 0, 0, 0, 0, 0, 0, 0, 23199, 0, 0, 0, 0, 0, 0, 0, 0, 0, 0, 0, 42944, 0, 0, 0, 0, 0, 41534, 28169, 5470, 0, 45475, 0, 0, -1, 0, 0, 0],[9905, 0, 0, 25301, 0, 0, 0, 34366, 0, 35560, 0, 0, 0, 0, 0, 0, 0, 0, 0, 0, 0, 0, 0, 0, 44237, 0, 14691, 0, 0, 0, 0, 0, 0, 0, 0, 12359, 39594, 0, 0, 30830, 0, 18243, 0, 0, 0, 0, 0, 0, 45999, 17067, 0, 0, 0, 20238, 0, 0, 0, 0, 0, 0, 37383, 0, 12425, 39925, 0, -1, 0, 0],[0, 0, 0, 40360, 0, 0, 28692, 0, 0, 0, 0, 0, 0, 0, 0, 0, 33622, 0, 29302, 0, 0, 0, 0, 45173, 0, 0, 0, 0, 42946, 0, 40608, 41324, 0, 21254, 0, 35793, 35395, 42526, 0, 44260, 0, 0, 0, 45195, 0, 0, 0, 17752, 0, 0, 0, 0, 31926, 31811, 30478, 27073, 0, 0, 38306, 0, 43950, 0, 0, 23265, 0, 0, -1, 0],[0, 20291, 0, 29192, 0, 44951, 0, 32238, 0, 0, 0, 0, 0, 0, 0, 0, 0, 0, 0, 0, 0, 0, 0, 0, 36573, 0, 27806, 30421, 0, 0, 0, 0, 19318, 0, 0, 0, 15932, 40267, 0, 32009, 0, 0, 0, 0, 0, 0, 0, 0, 0, 0, 18613, 0, 0, 0, 0, 0, 40980, 0, 0, 0, 44246, 0, 0, 41908, 0, 0, 0, -1]]